#************************************************************************************
#*                   Generated by cif2cell 2.0.0 2020-06-05 14:43                   *
#*  T. Bjorkman, Comp. Phys. Commun. 182, 1183-1186 (2011). Please cite generously. *
#*                                                                                  *
#*                                 None   (Zincite)                                 *
#*        Xu, Y. N. and Ching, W. Y., Physical Review B 48, 4335-4351 (1993)        *
#************************************************************************************
&CONTROL
  calculation='bands',
  outdir='.',
  prefix='wurtzite',
  pseudo_dir='.',
  verbosity='high',
  tprnfor=.true.,
  !tstress=.true.,
/
&SYSTEM
  ibrav = 0
  A =    3.24900
  nat = 4
  ntyp = 2
  ecutwfc=50,
  ecutrho=400,
  nbnd=10,
  input_dft='pbe',
 ! occupations='smearing',
  
/

&ELECTRONS
  conv_thr=1d-06,
  mixing_beta=0.7d0,
/

CELL_PARAMETERS {alat}
  0.866025403784439  -0.500000000000000   0.000000000000000 
  0.000000000000000   1.000000000000000   0.000000000000000 
  0.000000000000000   0.000000000000000   1.602646968297938 

ATOMIC_SPECIES
   O   15.99900   O.pbe-n-rrkjus_psl.1.0.0.UPF
  Zn   65.38000   Zn.pbe-dnl-rrkjus_psl.1.0.0.UPF

ATOMIC_POSITIONS {crystal}
Zn   0.666666666666667   0.333333333333333   0.000000000000000 
Zn   0.333333333333333   0.666666666666667   0.500000000000000 
 O   0.666666666666667   0.333333333333333   0.345000000000000 
 O   0.333333333333333   0.666666666666667   0.845000000000000 
 
K_POINTS {crystal_b}
8
  0.000000   0.000000   0.000000  20
  0.000000   0.000000   0.500000  20
  0.660000   0.330000   0.500000  20
  0.660000   0.330000   0.000000  20
  0.000000   0.000000   0.000000  20
  0.500000   0.000000   0.000000  20
  0.500000   0.000000   0.500000  20
  0.660000   0.330000   0.500000  20