&BANDS
	outdir='.',
	prefix='zno',
	filband='znobands.dat',
/
