#************************************************************************************
#*                   Generated by cif2cell 2.0.0 2020-06-09 22:25                   *
#*  T. Bjorkman, Comp. Phys. Commun. 182, 1183-1186 (2011). Please cite generously. *
#*                                                                                  *
#*                                 None   (Zincite)                                 *
#*        Xu, Y. N. and Ching, W. Y., Physical Review B 48, 4335-4351 (1993)        *
#************************************************************************************
&CONTROL
	calculation='bands',
        outdir='.',
	prefix='zno',
	pseudo_dir='.',
	verbosity='high',
/

&SYSTEM
  ibrav = 0,
  A =    3.24900,
  nat = 4,
  ntyp = 2,
  ecutwfc=40,
  ecutrho=320,
  nbnd=36,
  lda_plus_u=.true.,
  Hubbard_U(1)=7.0,
  Hubbard_U(2)=10.0,
/

&ELECTRONS
  conv_thr=1d-07,
  electron_maxstep=150,
  mixing_beta=0.3d0
  diagonalization='cg'
/


CELL_PARAMETERS {alat}
  0.866025403784439  -0.500000000000000   0.000000000000000 
  0.000000000000000   1.000000000000000   0.000000000000000 
  0.000000000000000   0.000000000000000   1.602646968297938 
ATOMIC_SPECIES
   O   15.99900  O.pbe-n-rrkjus_psl.1.0.0.UPF
  Zn   65.38000  Zn.pbe-dnl-rrkjus_psl.1.0.0.UPF
ATOMIC_POSITIONS {crystal}
Zn   0.666666666666667   0.333333333333333   0.000000000000000 
Zn   0.333333333333333   0.666666666666667   0.500000000000000 
 O   0.666666666666667   0.333333333333333   0.345000000000000 
 O   0.333333333333333   0.666666666666667   0.845000000000000 
K_POINTS {crystal_b}
 12 
   0.0000   0.0000   0.0000 20 !G
   0.5000   0.0000   0.0000 20 !M
   0.3333   0.3333   0.0000 20 !K
   0.0000   0.0000   0.0000 20 !G
   0.0000   0.0000   0.5000 20 !A
   0.5000   0.0000   0.5000 20 !L
   0.3333   0.3333   0.5000 20 !H
   0.0000   0.0000   0.5000 20 !A
   
   0.5000   0.0000   0.5000 20 !L
   0.5000   0.0000   0.0000 20 !M
   
   0.3333   0.3333   0.0000 20 !K
   0.3333   0.3333   0.5000 20 !H 
