#************************************************************************************
#*                   Generated by cif2cell 2.0.0 2020-06-05 14:43                   *
#*  T. Bjorkman, Comp. Phys. Commun. 182, 1183-1186 (2011). Please cite generously. *
#*                                                                                  *
#*                                 None   (Zincite)                                 *
#*        Xu, Y. N. and Ching, W. Y., Physical Review B 48, 4335-4351 (1993)        *
#************************************************************************************
&CONTROL
  calculation='scf',
  outdir='.',
  prefix='wurtzite',
  pseudo_dir='.',
  verbosity='low',
  tprnfor=.true.,
 ! tstress=.true.,
/
&SYSTEM
  ibrav = 0
  A =    3.24900
  nat = 4
  ntyp = 2
  ecutwfc=40,
  ecutrho=320,
  nbnd=36,
  lda_plus_u=.true.,
  Hubbard_U(1)=7.0,
  Hubbard_U(2)=10.0,
  !input_dft='pbe',
  !occupations='smearing',
  !smearing='mv',
  !degauss=0.005d0,
/

&ELECTRONS
  conv_thr=1d-09,
  mixing_beta=0.7d0,
/

&IONS
 ion_dynamics='bfgs',
/

&CELL
  cell_dynamics='bfgs',
  press=0.d0,
  press_conv_thr=0.4d0,
/

CELL_PARAMETERS {alat}
  0.866025403784439  -0.500000000000000   0.000000000000000 
  0.000000000000000   1.000000000000000   0.000000000000000 
  0.000000000000000   0.000000000000000   1.602646968297938 
ATOMIC_SPECIES
   O   15.99900   O.pbe-n-rrkjus_psl.1.0.0.UPF
  Zn   65.38000   Zn.pbe-dnl-rrkjus_psl.1.0.0.UPF
ATOMIC_POSITIONS {crystal}
Zn   0.666666666666667   0.333333333333333   0.000000000000000 
Zn   0.333333333333333   0.666666666666667   0.500000000000000 
 O   0.666666666666667   0.333333333333333   0.345000000000000 
 O   0.333333333333333   0.666666666666667   0.845000000000000 
 
K_POINTS {automatic}
 4 4 4 0 0 0
